TCS_Benchmarks/redos_fix/snort3_output_distinct_3111_3110_0_0.txt
([^>]*)([^>]*)
([^>]*)([hH][eE][iI][gG][hH][tT])([^>]*)